benchmarks_CP/INST_49x49/50/inst49x49_50_36.dzn
S=7;
start=[|
-1,	-1,	30,	48,	12,	13,	-1,	22,	35,	-1,	10,	-1,	2,	-1,	24,	-1,	49,	-1,	11,	16,	-1,	19,	-1,	-1,	3,	-1,	47,	6,	9,	-1,	25,	18,	-1,	-1,	37,	-1,	-1,	-1,	27,	28,	42,	38,	-1,	43,	-1,	-1,	41,	26,	32|
27,	-1,	10,	42,	28,	25,	21,	47,	-1,	-1,	1,	18,	-1,	-1,	-1,	-1,	2,	-1,	-1,	19,	26,	-1,	-1,	-1,	4,	-1,	49,	29,	17,	39,	-1,	24,	8,	13,	-1,	-1,	46,	-1,	16,	12,	31,	-1,	36,	34,	5,	-1,	-1,	-1,	-1|
-1,	3,	5,	-1,	-1,	19,	35,	-1,	-1,	-1,	30,	-1,	9,	23,	-1,	28,	-1,	-1,	13,	-1,	34,	-1,	17,	37,	24,	-1,	14,	-1,	-1,	41,	-1,	-1,	43,	-1,	36,	-1,	6,	32,	-1,	4,	26,	1,	-1,	40,	-1,	11,	49,	-1,	27|
39,	11,	-1,	41,	-1,	-1,	-1,	25,	-1,	-1,	-1,	-1,	29,	27,	47,	1,	-1,	-1,	36,	-1,	-1,	15,	-1,	16,	9,	31,	34,	32,	4,	28,	-1,	-1,	12,	-1,	-1,	-1,	-1,	40,	-1,	-1,	8,	35,	-1,	-1,	-1,	-1,	-1,	-1,	-1|
-1,	-1,	-1,	32,	8,	-1,	-1,	-1,	-1,	41,	-1,	-1,	-1,	-1,	33,	-1,	18,	27,	-1,	-1,	-1,	-1,	5,	28,	-1,	22,	-1,	-1,	47,	49,	16,	-1,	35,	11,	26,	-1,	30,	-1,	-1,	13,	14,	-1,	48,	-1,	-1,	29,	-1,	-1,	12|
47,	2,	-1,	-1,	44,	-1,	-1,	-1,	3,	37,	13,	49,	39,	15,	23,	-1,	-1,	12,	-1,	-1,	-1,	45,	-1,	46,	-1,	30,	-1,	-1,	-1,	-1,	-1,	-1,	-1,	-1,	-1,	48,	-1,	20,	18,	-1,	22,	-1,	-1,	-1,	35,	38,	8,	28,	4|
18,	40,	24,	-1,	38,	17,	49,	-1,	-1,	-1,	-1,	33,	4,	34,	-1,	25,	-1,	10,	32,	-1,	-1,	42,	27,	2,	-1,	-1,	48,	-1,	-1,	22,	-1,	7,	-1,	-1,	31,	5,	-1,	3,	36,	9,	21,	-1,	1,	13,	-1,	-1,	47,	20,	-1|
35,	-1,	19,	-1,	25,	-1,	16,	44,	-1,	9,	-1,	-1,	-1,	8,	10,	-1,	-1,	-1,	-1,	-1,	-1,	-1,	22,	39,	30,	-1,	6,	14,	41,	2,	-1,	-1,	-1,	-1,	29,	17,	45,	-1,	-1,	-1,	7,	-1,	-1,	47,	-1,	1,	27,	-1,	-1|
20,	-1,	-1,	3,	5,	18,	-1,	30,	22,	6,	-1,	-1,	-1,	16,	-1,	-1,	-1,	7,	28,	45,	-1,	-1,	-1,	-1,	42,	34,	-1,	-1,	-1,	-1,	13,	-1,	40,	8,	9,	31,	12,	36,	26,	-1,	38,	15,	35,	-1,	19,	2,	11,	37,	-1|
36,	-1,	-1,	-1,	-1,	9,	-1,	-1,	14,	-1,	-1,	-1,	31,	-1,	18,	-1,	34,	-1,	8,	1,	-1,	-1,	-1,	20,	-1,	-1,	-1,	-1,	11,	-1,	-1,	-1,	44,	30,	-1,	-1,	-1,	-1,	-1,	24,	10,	-1,	33,	38,	-1,	32,	-1,	7,	-1|
12,	14,	33,	-1,	-1,	-1,	-1,	15,	23,	1,	-1,	41,	42,	29,	22,	38,	-1,	11,	-1,	6,	-1,	-1,	-1,	4,	2,	-1,	-1,	-1,	39,	-1,	-1,	-1,	37,	45,	48,	32,	28,	-1,	-1,	46,	49,	-1,	-1,	24,	-1,	30,	-1,	-1,	16|
-1,	-1,	-1,	-1,	-1,	32,	15,	-1,	-1,	-1,	3,	11,	-1,	-1,	-1,	49,	12,	-1,	2,	-1,	36,	43,	-1,	-1,	27,	-1,	-1,	10,	-1,	-1,	-1,	47,	28,	-1,	-1,	6,	-1,	23,	42,	16,	25,	-1,	-1,	-1,	-1,	-1,	-1,	4,	48|
-1,	1,	-1,	-1,	-1,	-1,	38,	19,	48,	27,	-1,	12,	28,	33,	-1,	-1,	-1,	-1,	17,	21,	37,	-1,	-1,	-1,	47,	23,	-1,	-1,	16,	6,	36,	20,	31,	10,	32,	-1,	-1,	18,	-1,	34,	-1,	30,	45,	-1,	46,	-1,	-1,	-1,	-1|
48,	28,	6,	10,	24,	-1,	42,	-1,	32,	-1,	17,	46,	-1,	25,	19,	-1,	30,	29,	47,	-1,	33,	37,	21,	-1,	-1,	16,	-1,	-1,	26,	23,	7,	49,	22,	-1,	14,	-1,	-1,	-1,	-1,	-1,	-1,	-1,	-1,	44,	-1,	-1,	5,	-1,	43|
11,	25,	-1,	-1,	21,	2,	12,	35,	33,	-1,	41,	-1,	-1,	-1,	-1,	43,	-1,	-1,	37,	-1,	27,	36,	6,	-1,	-1,	1,	20,	-1,	-1,	48,	17,	-1,	-1,	44,	22,	-1,	5,	30,	9,	-1,	40,	4,	-1,	-1,	47,	-1,	-1,	-1,	-1|
-1,	-1,	15,	-1,	40,	-1,	3,	-1,	-1,	22,	-1,	-1,	13,	-1,	8,	-1,	19,	41,	-1,	7,	24,	18,	34,	-1,	-1,	-1,	16,	-1,	-1,	-1,	-1,	12,	6,	-1,	25,	46,	31,	-1,	1,	-1,	48,	-1,	-1,	-1,	42,	23,	36,	-1,	-1|
31,	-1,	36,	-1,	6,	28,	-1,	-1,	-1,	49,	42,	-1,	-1,	30,	-1,	48,	10,	44,	-1,	-1,	39,	38,	-1,	3,	-1,	-1,	22,	-1,	-1,	24,	37,	-1,	1,	33,	-1,	-1,	18,	12,	-1,	-1,	17,	-1,	41,	-1,	4,	-1,	-1,	21,	-1|
45,	-1,	8,	14,	30,	-1,	-1,	36,	31,	-1,	-1,	9,	-1,	28,	21,	22,	35,	-1,	1,	38,	-1,	48,	39,	42,	-1,	-1,	37,	-1,	15,	-1,	34,	3,	-1,	-1,	43,	2,	-1,	11,	-1,	-1,	16,	41,	26,	-1,	-1,	-1,	-1,	19,	-1|
37,	44,	32,	18,	-1,	-1,	10,	-1,	8,	17,	46,	34,	-1,	11,	4,	-1,	15,	-1,	9,	-1,	6,	-1,	40,	14,	31,	47,	35,	30,	42,	16,	-1,	38,	-1,	28,	39,	-1,	23,	-1,	-1,	21,	29,	49,	43,	-1,	-1,	22,	-1,	-1,	20|
16,	49,	4,	19,	1,	-1,	-1,	20,	-1,	48,	-1,	-1,	-1,	7,	-1,	-1,	-1,	-1,	-1,	-1,	-1,	-1,	-1,	17,	15,	-1,	45,	-1,	-1,	21,	-1,	-1,	-1,	-1,	-1,	-1,	27,	25,	14,	32,	-1,	-1,	6,	28,	-1,	18,	2,	-1,	8|
-1,	-1,	7,	-1,	42,	-1,	39,	-1,	-1,	12,	-1,	1,	-1,	3,	-1,	40,	-1,	-1,	49,	36,	32,	-1,	-1,	-1,	21,	-1,	4,	-1,	30,	-1,	-1,	-1,	47,	-1,	-1,	-1,	-1,	-1,	-1,	19,	24,	33,	-1,	-1,	48,	17,	37,	-1,	-1|
-1,	45,	-1,	11,	26,	-1,	14,	-1,	9,	-1,	-1,	-1,	44,	41,	-1,	32,	4,	21,	-1,	29,	-1,	-1,	1,	49,	-1,	48,	8,	46,	-1,	-1,	31,	36,	-1,	6,	-1,	18,	20,	24,	-1,	-1,	33,	-1,	-1,	-1,	-1,	-1,	-1,	-1,	15|
-1,	-1,	-1,	-1,	10,	-1,	-1,	24,	28,	19,	-1,	45,	-1,	-1,	-1,	-1,	-1,	33,	-1,	-1,	7,	3,	2,	-1,	-1,	-1,	26,	-1,	12,	40,	30,	-1,	4,	-1,	11,	-1,	-1,	-1,	-1,	8,	27,	-1,	29,	23,	-1,	21,	-1,	-1,	-1|
22,	18,	-1,	-1,	19,	44,	-1,	13,	40,	32,	37,	42,	7,	-1,	49,	-1,	6,	-1,	31,	34,	-1,	25,	30,	-1,	29,	14,	-1,	15,	8,	-1,	46,	-1,	-1,	26,	33,	21,	3,	4,	-1,	-1,	-1,	45,	47,	-1,	43,	-1,	-1,	11,	-1|
-1,	16,	48,	30,	43,	-1,	20,	4,	26,	47,	33,	14,	-1,	-1,	42,	-1,	24,	8,	39,	-1,	18,	-1,	-1,	11,	-1,	17,	-1,	-1,	21,	-1,	38,	28,	-1,	-1,	-1,	-1,	15,	44,	46,	-1,	-1,	29,	40,	-1,	-1,	-1,	31,	-1,	25|
-1,	-1,	-1,	8,	34,	-1,	-1,	17,	15,	11,	-1,	20,	30,	-1,	-1,	41,	1,	9,	-1,	-1,	10,	-1,	12,	19,	-1,	-1,	-1,	-1,	25,	44,	29,	27,	48,	-1,	-1,	26,	38,	22,	-1,	-1,	-1,	-1,	46,	-1,	33,	24,	14,	39,	13|
32,	6,	-1,	12,	33,	29,	-1,	34,	25,	35,	-1,	-1,	-1,	49,	30,	23,	-1,	3,	-1,	-1,	16,	21,	-1,	24,	7,	45,	-1,	39,	-1,	-1,	-1,	-1,	18,	-1,	47,	-1,	40,	9,	28,	-1,	-1,	-1,	-1,	8,	-1,	-1,	4,	1,	-1|
-1,	-1,	-1,	-1,	27,	46,	40,	8,	21,	-1,	29,	-1,	43,	31,	-1,	-1,	-1,	-1,	-1,	-1,	19,	-1,	44,	33,	-1,	6,	23,	28,	-1,	-1,	22,	42,	-1,	-1,	24,	-1,	16,	41,	7,	17,	-1,	10,	-1,	18,	-1,	34,	30,	-1,	-1|
-1,	41,	23,	5,	7,	20,	-1,	-1,	-1,	18,	12,	-1,	-1,	-1,	31,	-1,	47,	49,	-1,	-1,	25,	-1,	38,	-1,	34,	-1,	-1,	-1,	40,	-1,	-1,	29,	-1,	-1,	16,	19,	43,	-1,	39,	11,	-1,	-1,	-1,	10,	-1,	-1,	-1,	32,	14|
14,	9,	49,	-1,	-1,	22,	18,	41,	-1,	42,	-1,	-1,	3,	-1,	-1,	-1,	-1,	6,	44,	-1,	-1,	31,	-1,	-1,	-1,	-1,	-1,	12,	-1,	11,	-1,	19,	-1,	1,	-1,	-1,	2,	-1,	-1,	-1,	47,	-1,	-1,	39,	27,	5,	46,	40,	-1|
-1,	-1,	31,	-1,	-1,	40,	4,	37,	-1,	-1,	-1,	-1,	-1,	46,	-1,	11,	42,	-1,	10,	27,	-1,	2,	-1,	22,	43,	-1,	-1,	3,	36,	-1,	-1,	-1,	32,	-1,	-1,	-1,	1,	-1,	21,	29,	5,	25,	28,	15,	8,	-1,	38,	-1,	19|
-1,	42,	2,	25,	-1,	27,	-1,	9,	39,	24,	7,	-1,	32,	14,	34,	8,	33,	48,	38,	5,	43,	6,	-1,	-1,	-1,	40,	-1,	-1,	3,	-1,	-1,	-1,	-1,	18,	12,	-1,	-1,	-1,	-1,	26,	28,	-1,	-1,	11,	37,	-1,	35,	49,	-1|
-1,	-1,	46,	38,	-1,	39,	48,	-1,	-1,	8,	-1,	-1,	-1,	-1,	3,	30,	32,	24,	-1,	-1,	45,	44,	-1,	-1,	-1,	-1,	13,	-1,	-1,	31,	28,	-1,	33,	-1,	20,	-1,	-1,	37,	-1,	18,	-1,	-1,	42,	41,	29,	43,	-1,	-1,	6|
-1,	37,	-1,	24,	-1,	12,	-1,	29,	-1,	31,	-1,	23,	-1,	38,	14,	-1,	28,	-1,	18,	15,	1,	-1,	-1,	-1,	19,	-1,	7,	-1,	10,	45,	43,	-1,	-1,	49,	5,	-1,	-1,	-1,	-1,	6,	-1,	13,	-1,	-1,	-1,	-1,	-1,	-1,	36|
-1,	-1,	43,	15,	-1,	6,	11,	-1,	10,	25,	4,	-1,	-1,	48,	-1,	26,	7,	-1,	16,	-1,	-1,	32,	-1,	29,	-1,	5,	39,	37,	35,	-1,	44,	-1,	-1,	9,	-1,	-1,	-1,	-1,	-1,	23,	-1,	3,	-1,	1,	30,	31,	-1,	45,	-1|
-1,	5,	34,	2,	-1,	23,	-1,	48,	27,	-1,	-1,	35,	15,	-1,	-1,	14,	45,	-1,	-1,	-1,	29,	33,	20,	-1,	39,	-1,	-1,	7,	-1,	42,	47,	-1,	46,	31,	-1,	11,	-1,	-1,	37,	36,	-1,	18,	-1,	30,	44,	19,	-1,	8,	10|
-1,	-1,	-1,	-1,	-1,	38,	27,	46,	4,	29,	-1,	-1,	22,	-1,	43,	19,	44,	15,	-1,	12,	9,	13,	37,	-1,	45,	-1,	-1,	41,	-1,	-1,	-1,	5,	20,	-1,	-1,	49,	-1,	-1,	-1,	3,	-1,	7,	23,	-1,	-1,	-1,	-1,	-1,	35|
-1,	12,	3,	49,	46,	-1,	47,	-1,	-1,	-1,	-1,	-1,	17,	37,	-1,	-1,	41,	1,	-1,	-1,	-1,	30,	-1,	-1,	-1,	-1,	29,	8,	-1,	-1,	-1,	44,	23,	-1,	-1,	-1,	19,	15,	-1,	48,	45,	-1,	-1,	9,	14,	13,	20,	-1,	-1|
-1,	33,	-1,	-1,	-1,	30,	29,	-1,	41,	-1,	-1,	-1,	8,	-1,	5,	-1,	20,	23,	-1,	-1,	40,	49,	-1,	-1,	17,	44,	19,	43,	48,	12,	-1,	-1,	-1,	-1,	-1,	-1,	-1,	38,	32,	-1,	35,	46,	-1,	-1,	-1,	-1,	34,	2,	39|
19,	-1,	44,	-1,	-1,	48,	-1,	-1,	-1,	21,	49,	-1,	5,	-1,	-1,	46,	16,	47,	-1,	-1,	28,	35,	-1,	-1,	40,	27,	-1,	23,	29,	-1,	41,	-1,	2,	-1,	-1,	-1,	-1,	-1,	-1,	-1,	30,	-1,	3,	-1,	-1,	-1,	-1,	18,	31|
-1,	32,	20,	-1,	-1,	1,	28,	23,	-1,	30,	-1,	31,	-1,	-1,	25,	-1,	39,	34,	33,	8,	35,	-1,	4,	6,	-1,	-1,	-1,	-1,	7,	43,	45,	37,	38,	27,	40,	41,	-1,	21,	10,	22,	44,	12,	5,	-1,	15,	47,	-1,	46,	-1|
-1,	35,	16,	36,	-1,	-1,	-1,	-1,	20,	-1,	34,	-1,	33,	9,	-1,	2,	27,	13,	30,	48,	-1,	-1,	-1,	12,	22,	-1,	-1,	31,	-1,	-1,	-1,	-1,	-1,	-1,	-1,	40,	47,	-1,	-1,	-1,	-1,	-1,	-1,	-1,	38,	4,	43,	17,	-1|
-1,	-1,	42,	28,	35,	-1,	32,	-1,	-1,	45,	8,	21,	34,	-1,	29,	12,	5,	25,	-1,	-1,	30,	-1,	48,	18,	6,	-1,	38,	16,	-1,	-1,	49,	-1,	11,	20,	15,	-1,	36,	-1,	-1,	-1,	-1,	-1,	13,	27,	23,	39,	40,	-1,	-1|
-1,	-1,	17,	-1,	-1,	11,	-1,	28,	42,	15,	27,	29,	47,	39,	40,	-1,	-1,	19,	23,	-1,	8,	34,	-1,	-1,	33,	-1,	3,	-1,	-1,	4,	12,	-1,	30,	14,	44,	45,	-1,	1,	20,	-1,	37,	-1,	18,	-1,	7,	48,	-1,	-1,	-1|
3,	24,	-1,	1,	-1,	21,	-1,	-1,	-1,	5,	14,	-1,	-1,	43,	32,	10,	-1,	-1,	4,	39,	2,	-1,	19,	26,	-1,	37,	12,	22,	13,	36,	-1,	23,	-1,	-1,	18,	-1,	48,	-1,	41,	15,	-1,	8,	-1,	6,	-1,	35,	42,	-1,	-1|
-1,	38,	25,	-1,	36,	37,	13,	1,	-1,	-1,	-1,	22,	-1,	-1,	-1,	-1,	9,	18,	34,	-1,	-1,	14,	-1,	43,	-1,	-1,	44,	11,	6,	19,	32,	-1,	-1,	48,	45,	30,	-1,	29,	-1,	-1,	-1,	16,	-1,	26,	-1,	28,	33,	15,	3|
15,	-1,	-1,	-1,	23,	-1,	-1,	32,	37,	-1,	9,	30,	-1,	-1,	-1,	-1,	31,	-1,	-1,	-1,	-1,	-1,	25,	45,	-1,	-1,	-1,	-1,	-1,	-1,	35,	-1,	42,	-1,	-1,	12,	-1,	-1,	3,	-1,	-1,	40,	-1,	19,	-1,	-1,	44,	-1,	1|
5,	-1,	-1,	-1,	-1,	7,	-1,	33,	19,	-1,	-1,	-1,	-1,	-1,	-1,	37,	-1,	-1,	-1,	14,	-1,	1,	29,	-1,	-1,	-1,	-1,	-1,	28,	38,	26,	8,	9,	-1,	10,	13,	-1,	-1,	23,	-1,	-1,	27,	31,	-1,	-1,	-1,	17,	47,	-1|
30,	-1,	29,	45,	-1,	-1,	-1,	26,	-1,	13,	-1,	17,	6,	24,	-1,	-1,	-1,	-1,	15,	-1,	42,	27,	-1,	-1,	8,	-1,	-1,	40,	37,	-1,	-1,	-1,	39,	41,	21,	-1,	32,	5,	-1,	25,	-1,	-1,	-1,	4,	-1,	-1,	12,	22,	-1|];
