sudoku-ls/benchmarks_LEQ/INST_49x49/50/inst49x49_50_36.txt
7
1
-1	-1	30	-1	-1	13	34	-1	35	-1	-1	7	-1	-1	-1	-1	-1	5	11	16	4	-1	-1	40	-1	8	47	-1	9	-1	-1	18	15	-1	-1	29	39	-1	-1	28	42	38	-1	43	-1	45	-1	26	32
27	43	-1	42	28	-1	21	-1	6	14	1	-1	-1	32	15	-1	-1	37	-1	-1	-1	-1	33	-1	-1	-1	49	29	17	-1	-1	24	-1	-1	-1	-1	46	45	16	-1	-1	11	-1	-1	5	9	23	44	30
-1	-1	-1	33	22	-1	35	-1	16	-1	-1	-1	-1	-1	-1	-1	29	-1	13	-1	34	39	17	37	-1	12	-1	18	44	41	2	48	-1	-1	-1	-1	-1	-1	-1	4	26	1	10	40	21	-1	49	-1	27
-1	-1	14	-1	20	-1	-1	25	17	-1	26	5	29	27	47	1	-1	38	-1	-1	-1	15	13	-1	9	31	34	32	4	28	42	10	-1	-1	-1	23	49	40	-1	44	-1	-1	-1	-1	-1	-1	-1	33	-1
4	-1	-1	-1	-1	15	-1	42	24	41	-1	40	38	-1	-1	45	18	27	43	20	46	10	5	28	44	22	36	1	-1	49	16	-1	35	-1	-1	-1	-1	2	25	13	-1	-1	48	-1	39	29	3	31	-1
47	2	26	29	-1	16	36	-1	-1	37	13	-1	-1	15	23	9	17	-1	6	-1	14	-1	-1	46	11	-1	-1	-1	-1	-1	1	-1	27	34	-1	-1	-1	20	-1	41	-1	-1	-1	42	35	38	-1	-1	-1
-1	40	-1	-1	-1	17	49	12	11	44	-1	-1	-1	-1	-1	25	-1	10	-1	-1	-1	-1	-1	2	-1	43	48	-1	-1	22	23	7	14	29	-1	-1	-1	-1	-1	9	21	19	-1	-1	16	15	47	-1	-1
-1	-1	-1	-1	-1	-1	16	-1	-1	-1	-1	13	-1	8	10	5	-1	-1	-1	-1	23	-1	22	-1	-1	18	-1	-1	41	-1	4	-1	3	15	-1	-1	-1	48	-1	33	-1	37	-1	47	31	-1	27	12	42
20	4	47	-1	5	-1	41	30	-1	-1	43	-1	21	16	46	-1	-1	7	28	45	44	29	49	-1	-1	34	-1	-1	-1	25	-1	-1	-1	-1	9	-1	12	36	26	-1	-1	-1	-1	14	19	2	-1	37	-1
-1	-1	45	27	2	-1	23	49	-1	-1	-1	37	-1	-1	-1	-1	34	43	-1	1	15	-1	-1	20	48	-1	-1	26	-1	35	-1	17	44	30	-1	22	-1	-1	19	24	10	21	-1	-1	25	32	-1	-1	28
-1	-1	-1	-1	-1	31	-1	-1	-1	1	35	41	42	-1	22	-1	-1	-1	-1	-1	-1	7	-1	-1	2	19	-1	13	-1	34	-1	43	-1	45	-1	-1	-1	47	-1	-1	49	-1	9	-1	-1	30	21	10	-1
29	-1	22	21	-1	32	15	-1	45	-1	3	11	-1	20	9	-1	12	-1	-1	41	-1	43	-1	-1	-1	33	40	-1	-1	-1	-1	47	28	19	38	-1	-1	-1	-1	16	25	44	34	-1	18	-1	-1	4	-1
13	-1	40	-1	11	49	-1	-1	48	27	2	-1	28	33	-1	42	-1	-1	17	-1	37	-1	-1	-1	-1	-1	-1	44	16	-1	36	20	31	-1	-1	-1	-1	18	5	34	-1	30	-1	29	46	26	-1	3	-1
48	28	-1	-1	24	-1	-1	39	-1	34	17	46	18	25	-1	31	-1	29	-1	-1	33	-1	21	-1	38	-1	-1	-1	26	23	-1	-1	22	12	14	1	35	27	-1	-1	3	2	15	-1	-1	-1	5	36	43
11	-1	-1	23	-1	2	-1	-1	-1	-1	-1	-1	14	-1	-1	43	-1	-1	-1	18	-1	-1	6	-1	10	-1	20	19	-1	-1	-1	31	29	44	-1	-1	-1	-1	9	38	-1	-1	39	32	-1	46	-1	16	34
-1	-1	-1	43	40	26	3	21	-1	22	38	4	13	-1	-1	-1	-1	-1	45	7	-1	18	34	44	49	-1	16	5	20	-1	14	12	-1	-1	25	-1	31	-1	-1	-1	-1	-1	11	35	-1	23	-1	-1	-1
-1	27	-1	47	6	-1	5	-1	29	49	-1	-1	-1	-1	11	48	10	44	-1	-1	-1	-1	43	-1	-1	13	22	-1	-1	-1	37	-1	1	33	-1	20	18	-1	35	7	17	-1	-1	-1	-1	-1	-1	-1	-1
45	17	-1	-1	30	-1	46	-1	-1	40	32	9	23	-1	-1	-1	-1	-1	-1	-1	-1	-1	39	-1	-1	29	37	-1	-1	-1	34	-1	-1	4	43	2	13	-1	6	-1	16	-1	-1	-1	24	49	10	19	44
-1	44	32	-1	-1	24	10	-1	-1	17	-1	34	-1	11	4	13	15	2	9	33	6	41	-1	-1	-1	-1	-1	30	42	16	-1	38	36	28	-1	-1	-1	26	-1	21	-1	-1	43	-1	-1	-1	-1	-1	20
16	49	-1	-1	1	-1	22	20	44	-1	5	-1	-1	7	12	34	-1	-1	-1	47	-1	-1	24	17	-1	-1	-1	33	46	-1	-1	-1	10	40	35	36	-1	25	-1	32	-1	-1	-1	28	-1	-1	-1	38	-1
38	20	7	35	42	-1	-1	-1	43	-1	-1	-1	-1	3	16	-1	-1	-1	-1	-1	-1	-1	26	-1	21	-1	4	9	-1	-1	11	-1	-1	-1	-1	44	-1	28	15	19	24	33	-1	-1	-1	-1	37	-1	29
25	45	-1	-1	26	-1	14	-1	-1	23	-1	-1	44	-1	2	32	-1	-1	-1	-1	-1	-1	1	49	-1	48	8	-1	43	10	31	36	-1	6	34	-1	-1	24	13	-1	-1	47	7	22	-1	37	-1	42	15
-1	47	37	-1	-1	36	9	24	-1	19	-1	-1	-1	22	44	-1	-1	-1	35	43	7	3	2	-1	-1	20	-1	38	12	-1	30	-1	-1	17	-1	25	-1	-1	48	8	-1	5	-1	-1	-1	-1	-1	6	49
-1	-1	1	39	19	44	24	13	40	32	-1	-1	-1	10	-1	-1	6	36	31	34	-1	25	30	-1	-1	-1	-1	15	8	-1	-1	-1	41	-1	-1	21	3	4	-1	-1	-1	-1	-1	-1	-1	16	28	11	17
49	16	48	-1	43	5	20	4	-1	-1	-1	14	-1	6	42	-1	-1	-1	39	37	18	22	41	11	-1	17	-1	34	-1	3	-1	-1	-1	7	23	-1	-1	44	46	1	19	29	40	-1	-1	36	31	-1	25
-1	-1	-1	-1	-1	-1	-1	-1	15	-1	18	20	30	-1	45	-1	-1	9	40	28	10	-1	-1	19	16	-1	-1	-1	-1	-1	29	-1	-1	37	-1	-1	-1	-1	-1	43	6	-1	46	-1	-1	24	-1	39	-1
32	-1	41	-1	-1	29	17	34	25	-1	-1	-1	46	-1	-1	23	22	-1	-1	11	-1	21	10	-1	-1	-1	-1	39	19	13	20	-1	-1	5	47	-1	-1	9	-1	42	36	-1	44	-1	26	-1	4	1	38
-1	-1	38	4	-1	46	-1	8	21	36	29	3	43	31	48	-1	13	-1	-1	25	19	9	44	33	-1	6	23	-1	32	1	-1	42	-1	-1	24	-1	-1	-1	-1	-1	-1	-1	-1	18	45	-1	30	-1	-1
28	-1	23	-1	-1	20	-1	-1	1	-1	-1	-1	-1	-1	31	4	47	49	46	2	-1	8	38	48	34	-1	-1	-1	-1	-1	-1	29	26	-1	-1	-1	43	35	39	-1	15	9	17	-1	13	3	22	-1	14
-1	-1	-1	-1	-1	22	-1	-1	34	42	15	43	3	-1	-1	29	-1	6	-1	23	-1	31	-1	-1	25	-1	-1	-1	-1	11	-1	19	24	1	-1	4	2	-1	-1	-1	-1	-1	16	-1	-1	-1	-1	40	-1
-1	13	31	-1	-1	40	-1	37	-1	-1	20	16	-1	-1	41	11	-1	-1	10	27	-1	2	-1	22	43	-1	9	-1	36	14	48	-1	32	47	6	24	1	34	21	-1	5	-1	-1	-1	-1	-1	38	23	-1
10	-1	-1	-1	29	27	-1	9	-1	24	7	19	32	14	34	8	33	-1	-1	-1	-1	6	-1	23	-1	-1	-1	-1	-1	-1	-1	30	13	18	-1	-1	-1	31	-1	26	-1	36	-1	11	-1	-1	35	49	47
-1	36	-1	-1	-1	-1	48	-1	-1	8	22	26	35	-1	-1	30	32	24	19	9	45	-1	-1	-1	1	-1	-1	49	2	-1	28	4	-1	-1	-1	-1	7	-1	40	18	12	-1	-1	-1	-1	43	-1	34	-1
-1	37	-1	-1	3	12	-1	29	47	-1	21	-1	-1	-1	14	-1	-1	-1	18	15	-1	16	-1	-1	19	-1	7	-1	10	45	-1	22	25	-1	5	27	44	46	30	-1	32	-1	2	-1	9	33	-1	-1	36
-1	19	-1	-1	47	-1	11	2	-1	-1	-1	-1	-1	-1	13	26	7	-1	16	22	-1	-1	14	-1	-1	-1	39	-1	35	-1	44	-1	-1	-1	46	42	8	49	38	23	20	3	-1	1	-1	-1	-1	45	-1
6	-1	-1	-1	41	23	43	-1	-1	3	40	35	15	-1	17	14	-1	22	-1	32	-1	-1	-1	21	-1	38	28	-1	-1	-1	-1	-1	46	31	49	11	4	16	37	36	-1	-1	-1	30	-1	-1	1	-1	-1
26	-1	-1	31	-1	-1	-1	46	4	29	-1	-1	-1	1	43	19	-1	-1	42	-1	-1	13	-1	-1	-1	-1	-1	41	-1	30	6	5	-1	-1	-1	-1	33	-1	2	3	34	-1	-1	16	28	-1	-1	24	35
40	12	3	49	46	42	-1	43	-1	2	25	-1	17	-1	-1	-1	41	-1	21	-1	-1	30	-1	-1	5	32	-1	8	-1	-1	39	-1	-1	35	-1	28	19	-1	-1	48	45	-1	-1	-1	-1	13	20	-1	-1
7	33	-1	-1	4	-1	-1	-1	41	28	-1	-1	-1	26	5	-1	20	-1	-1	-1	40	-1	15	-1	17	-1	19	43	-1	12	10	16	21	3	13	-1	25	-1	-1	-1	35	46	37	-1	-1	42	34	2	39
-1	-1	44	-1	15	-1	-1	10	-1	-1	49	-1	-1	-1	6	-1	16	47	7	4	28	35	-1	-1	-1	27	-1	-1	-1	32	41	-1	2	-1	-1	-1	-1	-1	-1	-1	30	26	3	-1	11	-1	45	-1	-1
17	32	-1	-1	13	-1	-1	-1	-1	30	-1	-1	16	19	25	-1	-1	34	33	8	-1	-1	-1	6	-1	2	-1	-1	7	43	45	-1	-1	27	40	-1	42	-1	10	-1	-1	12	5	49	-1	-1	29	46	-1
24	-1	-1	-1	14	-1	45	-1	-1	-1	-1	44	-1	9	-1	-1	-1	13	-1	48	49	-1	-1	-1	22	-1	46	-1	-1	8	15	-1	19	25	-1	40	47	6	-1	-1	1	-1	32	21	38	4	43	17	41
-1	26	-1	28	35	-1	32	3	7	-1	-1	-1	34	-1	29	12	-1	-1	-1	-1	30	-1	-1	-1	6	9	-1	16	-1	-1	-1	-1	-1	20	15	-1	-1	19	44	-1	46	-1	-1	27	-1	39	40	14	-1
41	-1	17	-1	-1	-1	-1	28	-1	15	27	29	-1	-1	-1	-1	-1	19	23	-1	8	-1	32	13	33	24	3	36	-1	4	-1	25	-1	14	44	45	-1	-1	20	31	-1	-1	18	-1	7	48	-1	43	9
-1	24	27	-1	-1	21	44	40	-1	-1	-1	25	-1	-1	32	-1	11	46	-1	39	-1	-1	-1	-1	28	37	-1	22	13	36	-1	23	17	-1	-1	38	48	-1	-1	15	9	8	30	6	34	-1	42	29	45
8	-1	-1	20	36	-1	-1	-1	-1	10	-1	22	41	-1	27	-1	-1	18	34	-1	-1	-1	46	43	-1	42	44	11	-1	-1	32	-1	5	48	45	30	24	-1	17	35	39	16	21	26	2	-1	33	15	3
-1	22	-1	16	-1	47	-1	32	37	-1	9	-1	36	18	26	6	-1	-1	48	17	-1	-1	25	45	20	7	-1	-1	-1	29	35	46	42	24	-1	12	-1	-1	-1	-1	-1	40	8	-1	-1	-1	44	-1	1
5	-1	12	40	18	7	-1	-1	19	-1	-1	48	11	-1	20	37	-1	45	3	14	22	-1	-1	15	-1	-1	-1	-1	28	-1	26	8	9	-1	-1	-1	21	42	23	49	2	27	31	-1	32	25	17	-1	24
-1	-1	-1	-1	-1	14	19	-1	46	-1	23	17	-1	24	-1	-1	-1	16	15	44	42	27	-1	-1	-1	-1	31	-1	37	-1	-1	2	39	41	21	47	-1	5	-1	25	-1	-1	38	4	36	20	-1	-1	11
49 
21 12 8 46
1 13 12 19
1 25 26 44
32 43 23 33
30 46 21 30
3 37 34 40
31 46 8 41
18 3 3 12
30 2 22 9
9 12 14 4
34 23 26 10
30 28 11 1
20 32 23 4
30 1 21 18
35 4 31 44
23 11 22 33
21 46 12 44
38 9 18 30
17 13 20 4
8 19 1 30
6 27 30 49
21 37 2 19
24 41 37 43
29 28 11 44
21 26 43 18
34 47 8 20
16 30 28 5
16 26 22 3
42 39 8 35
47 12 15 38
19 25 27 42
6 32 29 48
25 11 31 10
42 11 49 39
26 6 49 23
4 19 21 20
15 19 40 4
13 7 32 19
19 35 34 16
22 22 32 26
17 43 33 44
36 30 16 45
13 36 4 10
32 46 1 16
8 37 31 5
8 2 32 25
14 19 28 16
49 2 6 36
24 15 26 39
